VER
1

OBJSENSE
MIN

VAR
64 2
L+ 63
F 1

CON
85 1
L+ 85

PSDCON
1
16

OBJACOORD
63
0 0.500000000
1 1.000000000
2 1.500000000
3 0.500000000
4 1.000000000
5 1.500000000
6 0.707106781
7 1.414213562
8 2.121320344
9 1.118033989
10 2.236067977
11 3.354101966
12 0.500000000
13 1.000000000
14 1.500000000
15 0.707106781
16 1.414213562
17 2.121320344
18 0.707106781
19 1.414213562
20 2.121320344
21 0.500000000
22 1.000000000
23 1.500000000
24 1.118033989
25 2.236067977
26 3.354101966
27 0.707106781
28 1.414213562
29 2.121320344
30 0.500000000
31 1.000000000
32 1.500000000
33 0.500000000
34 1.000000000
35 1.500000000
36 0.500000000
37 1.000000000
38 1.500000000
39 0.707106781
40 1.414213562
41 2.121320344
42 1.118033989
43 2.236067977
44 3.354101966
45 0.707106781
46 1.414213562
47 2.121320344
48 0.500000000
49 1.000000000
50 1.500000000
51 1.118033989
52 2.236067977
53 3.354101966
54 0.500000000
55 1.000000000
56 1.500000000
57 1.581138830
58 3.162277660
59 4.743416490
60 1.581138830
61 3.162277660
62 4.743416490

ACOORD
127
0 63 -1.000000000
1 0 -1.000000000
2 1 -1.000000000
3 2 -1.000000000
4 3 -1.000000000
5 4 -1.000000000
6 5 -1.000000000
7 6 -1.000000000
8 7 -1.000000000
9 8 -1.000000000
10 9 -1.000000000
11 10 -1.000000000
12 11 -1.000000000
13 12 -1.000000000
14 13 -1.000000000
15 14 -1.000000000
16 15 -1.000000000
17 16 -1.000000000
18 17 -1.000000000
19 18 -1.000000000
20 19 -1.000000000
21 20 -1.000000000
22 21 -1.000000000
23 22 -1.000000000
24 23 -1.000000000
25 24 -1.000000000
26 25 -1.000000000
27 26 -1.000000000
28 27 -1.000000000
29 28 -1.000000000
30 29 -1.000000000
31 30 -1.000000000
32 31 -1.000000000
33 32 -1.000000000
34 33 -1.000000000
35 34 -1.000000000
36 35 -1.000000000
37 36 -1.000000000
38 37 -1.000000000
39 38 -1.000000000
40 39 -1.000000000
41 40 -1.000000000
42 41 -1.000000000
43 42 -1.000000000
44 43 -1.000000000
45 44 -1.000000000
46 45 -1.000000000
47 46 -1.000000000
48 47 -1.000000000
49 48 -1.000000000
50 49 -1.000000000
51 50 -1.000000000
52 51 -1.000000000
53 52 -1.000000000
54 53 -1.000000000
55 54 -1.000000000
56 55 -1.000000000
57 56 -1.000000000
58 57 -1.000000000
59 58 -1.000000000
60 59 -1.000000000
61 60 -1.000000000
62 61 -1.000000000
63 62 -1.000000000
64 0 -1.000000000
64 1 -1.000000000
64 2 -1.000000000
65 3 -1.000000000
65 4 -1.000000000
65 5 -1.000000000
66 6 -1.000000000
66 7 -1.000000000
66 8 -1.000000000
67 9 -1.000000000
67 10 -1.000000000
67 11 -1.000000000
68 12 -1.000000000
68 13 -1.000000000
68 14 -1.000000000
69 15 -1.000000000
69 16 -1.000000000
69 17 -1.000000000
70 18 -1.000000000
70 19 -1.000000000
70 20 -1.000000000
71 21 -1.000000000
71 22 -1.000000000
71 23 -1.000000000
72 24 -1.000000000
72 25 -1.000000000
72 26 -1.000000000
73 27 -1.000000000
73 28 -1.000000000
73 29 -1.000000000
74 30 -1.000000000
74 31 -1.000000000
74 32 -1.000000000
75 33 -1.000000000
75 34 -1.000000000
75 35 -1.000000000
76 36 -1.000000000
76 37 -1.000000000
76 38 -1.000000000
77 39 -1.000000000
77 40 -1.000000000
77 41 -1.000000000
78 42 -1.000000000
78 43 -1.000000000
78 44 -1.000000000
79 45 -1.000000000
79 46 -1.000000000
79 47 -1.000000000
80 48 -1.000000000
80 49 -1.000000000
80 50 -1.000000000
81 51 -1.000000000
81 52 -1.000000000
81 53 -1.000000000
82 54 -1.000000000
82 55 -1.000000000
82 56 -1.000000000
83 57 -1.000000000
83 58 -1.000000000
83 59 -1.000000000
84 60 -1.000000000
84 61 -1.000000000
84 62 -1.000000000

BCOORD
85
0 0.100000000
1 1.000000000
2 1.000000000
3 1.000000000
4 1.000000000
5 1.000000000
6 1.000000000
7 1.000000000
8 1.000000000
9 1.000000000
10 1.000000000
11 1.000000000
12 1.000000000
13 1.000000000
14 1.000000000
15 1.000000000
16 1.000000000
17 1.000000000
18 1.000000000
19 1.000000000
20 1.000000000
21 1.000000000
22 1.000000000
23 1.000000000
24 1.000000000
25 1.000000000
26 1.000000000
27 1.000000000
28 1.000000000
29 1.000000000
30 1.000000000
31 1.000000000
32 1.000000000
33 1.000000000
34 1.000000000
35 1.000000000
36 1.000000000
37 1.000000000
38 1.000000000
39 1.000000000
40 1.000000000
41 1.000000000
42 1.000000000
43 1.000000000
44 1.000000000
45 1.000000000
46 1.000000000
47 1.000000000
48 1.000000000
49 1.000000000
50 1.000000000
51 1.000000000
52 1.000000000
53 1.000000000
54 1.000000000
55 1.000000000
56 1.000000000
57 1.000000000
58 1.000000000
59 1.000000000
60 1.000000000
61 1.000000000
62 1.000000000
63 1.000000000
64 1.000000000
65 1.000000000
66 1.000000000
67 1.000000000
68 1.000000000
69 1.000000000
70 1.000000000
71 1.000000000
72 1.000000000
73 1.000000000
74 1.000000000
75 1.000000000
76 1.000000000
77 1.000000000
78 1.000000000
79 1.000000000
80 1.000000000
81 1.000000000
82 1.000000000
83 1.000000000
84 1.000000000

HCOORD
307
0 63 0 0 2.000000000
0 63 1 1 2.000000000
0 63 2 2 2.000000000
0 63 3 3 2.000000000
0 0 5 5 105.000000000
0 0 7 5 -105.000000000
0 0 7 7 105.000000000
0 1 5 5 210.000000000
0 1 7 5 -210.000000000
0 1 7 7 210.000000000
0 2 5 5 315.000000000
0 2 7 5 -315.000000000
0 2 7 7 315.000000000
0 3 4 4 105.000000000
0 3 8 4 -105.000000000
0 3 8 8 105.000000000
0 4 4 4 210.000000000
0 4 8 4 -210.000000000
0 4 8 8 210.000000000
0 5 4 4 315.000000000
0 5 8 4 -315.000000000
0 5 8 8 315.000000000
0 6 4 4 26.250000000
0 6 5 4 26.250000000
0 6 10 4 -26.250000000
0 6 11 4 -26.250000000
0 6 5 5 26.250000000
0 6 10 5 -26.250000000
0 6 11 5 -26.250000000
0 6 10 10 26.250000000
0 6 11 10 26.250000000
0 6 11 11 26.250000000
0 7 4 4 52.500000000
0 7 5 4 52.500000000
0 7 10 4 -52.500000000
0 7 11 4 -52.500000000
0 7 5 5 52.500000000
0 7 10 5 -52.500000000
0 7 11 5 -52.500000000
0 7 10 10 52.500000000
0 7 11 10 52.500000000
0 7 11 11 52.500000000
0 8 4 4 78.750000000
0 8 5 4 78.750000000
0 8 10 4 -78.750000000
0 8 11 4 -78.750000000
0 8 5 5 78.750000000
0 8 10 5 -78.750000000
0 8 11 5 -78.750000000
0 8 10 10 78.750000000
0 8 11 10 78.750000000
0 8 11 11 78.750000000
0 9 4 4 16.800000000
0 9 5 4 8.400000000
0 9 14 4 -16.800000000
0 9 15 4 -8.400000000
0 9 5 5 4.200000000
0 9 14 5 -8.400000000
0 9 15 5 -4.200000000
0 9 14 14 16.800000000
0 9 15 14 8.400000000
0 9 15 15 4.200000000
0 10 4 4 33.600000000
0 10 5 4 16.800000000
0 10 14 4 -33.600000000
0 10 15 4 -16.800000000
0 10 5 5 8.400000000
0 10 14 5 -16.800000000
0 10 15 5 -8.400000000
0 10 14 14 33.600000000
0 10 15 14 16.800000000
0 10 15 15 8.400000000
0 11 4 4 50.400000000
0 11 5 4 25.200000000
0 11 14 4 -50.400000000
0 11 15 4 -25.200000000
0 11 5 5 12.600000000
0 11 14 5 -25.200000000
0 11 15 5 -12.600000000
0 11 14 14 50.400000000
0 11 15 14 25.200000000
0 11 15 15 12.600000000
0 12 4 4 105.000000000
0 13 4 4 210.000000000
0 14 4 4 315.000000000
0 15 4 4 26.250000000
0 15 5 4 -26.250000000
0 15 5 5 26.250000000
0 16 4 4 52.500000000
0 16 5 4 -52.500000000
0 16 5 5 52.500000000
0 17 4 4 78.750000000
0 17 5 4 -78.750000000
0 17 5 5 78.750000000
0 18 6 6 26.250000000
0 18 7 6 -26.250000000
0 18 8 6 -26.250000000
0 18 9 6 26.250000000
0 18 7 7 26.250000000
0 18 8 7 26.250000000
0 18 9 7 -26.250000000
0 18 8 8 26.250000000
0 18 9 8 -26.250000000
0 18 9 9 26.250000000
0 19 6 6 52.500000000
0 19 7 6 -52.500000000
0 19 8 6 -52.500000000
0 19 9 6 52.500000000
0 19 7 7 52.500000000
0 19 8 7 52.500000000
0 19 9 7 -52.500000000
0 19 8 8 52.500000000
0 19 9 8 -52.500000000
0 19 9 9 52.500000000
0 20 6 6 78.750000000
0 20 7 6 -78.750000000
0 20 8 6 -78.750000000
0 20 9 6 78.750000000
0 20 7 7 78.750000000
0 20 8 7 78.750000000
0 20 9 7 -78.750000000
0 20 8 8 78.750000000
0 20 9 8 -78.750000000
0 20 9 9 78.750000000
0 21 6 6 105.000000000
0 21 10 6 -105.000000000
0 21 10 10 105.000000000
0 22 6 6 210.000000000
0 22 10 6 -210.000000000
0 22 10 10 210.000000000
0 23 6 6 315.000000000
0 23 10 6 -315.000000000
0 23 10 10 315.000000000
0 24 6 6 16.800000000
0 24 7 6 -8.400000000
0 24 12 6 -16.800000000
0 24 13 6 8.400000000
0 24 7 7 4.200000000
0 24 12 7 8.400000000
0 24 13 7 -4.200000000
0 24 12 12 16.800000000
0 24 13 12 -8.400000000
0 24 13 13 4.200000000
0 25 6 6 33.600000000
0 25 7 6 -16.800000000
0 25 12 6 -33.600000000
0 25 13 6 16.800000000
0 25 7 7 8.400000000
0 25 12 7 16.800000000
0 25 13 7 -8.400000000
0 25 12 12 33.600000000
0 25 13 12 -16.800000000
0 25 13 13 8.400000000
0 26 6 6 50.400000000
0 26 7 6 -25.200000000
0 26 12 6 -50.400000000
0 26 13 6 25.200000000
0 26 7 7 12.600000000
0 26 12 7 25.200000000
0 26 13 7 -12.600000000
0 26 12 12 50.400000000
0 26 13 12 -25.200000000
0 26 13 13 12.600000000
0 27 6 6 26.250000000
0 27 7 6 26.250000000
0 27 7 7 26.250000000
0 28 6 6 52.500000000
0 28 7 6 52.500000000
0 28 7 7 52.500000000
0 29 6 6 78.750000000
0 29 7 6 78.750000000
0 29 7 7 78.750000000
0 30 6 6 105.000000000
0 31 6 6 210.000000000
0 32 6 6 315.000000000
0 33 9 9 105.000000000
0 33 11 9 -105.000000000
0 33 11 11 105.000000000
0 34 9 9 210.000000000
0 34 11 9 -210.000000000
0 34 11 11 210.000000000
0 35 9 9 315.000000000
0 35 11 9 -315.000000000
0 35 11 11 315.000000000
0 36 8 8 105.000000000
0 36 12 8 -105.000000000
0 36 12 12 105.000000000
0 37 8 8 210.000000000
0 37 12 8 -210.000000000
0 37 12 12 210.000000000
0 38 8 8 315.000000000
0 38 12 8 -315.000000000
0 38 12 12 315.000000000
0 39 8 8 26.250000000
0 39 9 8 26.250000000
0 39 14 8 -26.250000000
0 39 15 8 -26.250000000
0 39 9 9 26.250000000
0 39 14 9 -26.250000000
0 39 15 9 -26.250000000
0 39 14 14 26.250000000
0 39 15 14 26.250000000
0 39 15 15 26.250000000
0 40 8 8 52.500000000
0 40 9 8 52.500000000
0 40 14 8 -52.500000000
0 40 15 8 -52.500000000
0 40 9 9 52.500000000
0 40 14 9 -52.500000000
0 40 15 9 -52.500000000
0 40 14 14 52.500000000
0 40 15 14 52.500000000
0 40 15 15 52.500000000
0 41 8 8 78.750000000
0 41 9 8 78.750000000
0 41 14 8 -78.750000000
0 41 15 8 -78.750000000
0 41 9 9 78.750000000
0 41 14 9 -78.750000000
0 41 15 9 -78.750000000
0 41 14 14 78.750000000
0 41 15 14 78.750000000
0 41 15 15 78.750000000
0 42 8 8 16.800000000
0 42 9 8 -8.400000000
0 42 9 9 4.200000000
0 43 8 8 33.600000000
0 43 9 8 -16.800000000
0 43 9 9 8.400000000
0 44 8 8 50.400000000
0 44 9 8 -25.200000000
0 44 9 9 12.600000000
0 45 10 10 26.250000000
0 45 11 10 -26.250000000
0 45 12 10 -26.250000000
0 45 13 10 26.250000000
0 45 11 11 26.250000000
0 45 12 11 26.250000000
0 45 13 11 -26.250000000
0 45 12 12 26.250000000
0 45 13 12 -26.250000000
0 45 13 13 26.250000000
0 46 10 10 52.500000000
0 46 11 10 -52.500000000
0 46 12 10 -52.500000000
0 46 13 10 52.500000000
0 46 11 11 52.500000000
0 46 12 11 52.500000000
0 46 13 11 -52.500000000
0 46 12 12 52.500000000
0 46 13 12 -52.500000000
0 46 13 13 52.500000000
0 47 10 10 78.750000000
0 47 11 10 -78.750000000
0 47 12 10 -78.750000000
0 47 13 10 78.750000000
0 47 11 11 78.750000000
0 47 12 11 78.750000000
0 47 13 11 -78.750000000
0 47 12 12 78.750000000
0 47 13 12 -78.750000000
0 47 13 13 78.750000000
0 48 10 10 105.000000000
0 48 14 10 -105.000000000
0 48 14 14 105.000000000
0 49 10 10 210.000000000
0 49 14 10 -210.000000000
0 49 14 14 210.000000000
0 50 10 10 315.000000000
0 50 14 10 -315.000000000
0 50 14 14 315.000000000
0 51 10 10 16.800000000
0 51 11 10 8.400000000
0 51 11 11 4.200000000
0 52 10 10 33.600000000
0 52 11 10 16.800000000
0 52 11 11 8.400000000
0 53 10 10 50.400000000
0 53 11 10 25.200000000
0 53 11 11 12.600000000
0 54 13 13 105.000000000
0 54 15 13 -105.000000000
0 54 15 15 105.000000000
0 55 13 13 210.000000000
0 55 15 13 -210.000000000
0 55 15 15 210.000000000
0 56 13 13 315.000000000
0 56 15 13 -315.000000000
0 56 15 15 315.000000000
0 57 12 12 9.450000000
0 57 13 12 -3.150000000
0 57 13 13 1.050000000
0 58 12 12 18.900000000
0 58 13 12 -6.300000000
0 58 13 13 2.100000000
0 59 12 12 28.350000000
0 59 13 12 -9.450000000
0 59 13 13 3.150000000
0 60 14 14 9.450000000
0 60 15 14 3.150000000
0 60 15 15 1.050000000
0 61 14 14 18.900000000
0 61 15 14 6.300000000
0 61 15 15 2.100000000
0 62 14 14 28.350000000
0 62 15 14 9.450000000
0 62 15 15 3.150000000

DCOORD
11
0 12 1 -0.100000000
0 12 2 0.031547005
0 12 3 -0.008452995
0 13 1 -0.100000000
0 13 2 -0.008452995
0 13 3 0.031547005
0 14 1 -0.100000000
0 14 2 -0.023094011
0 14 3 -0.023094011
0 15 0 -0.300000000
0 15 1 -0.300000000
